\ Model Vehicle Routing
\ LP format - for model browsing. Use MPS format to capture full model detail.
Minimize
  0 C0 + 10 C1 + 14.14213562373095 C2 + 10 C3 + 14.14213562373095 C4 + 10 C5
   + 0 C6 + 10 C7 + 20 C8 + 22.3606797749979 C9 + 14.14213562373095 C10
   + 10 C11 + 0 C12 + 22.3606797749979 C13 + 28.2842712474619 C14 + 10 C15
   + 20 C16 + 22.3606797749979 C17 + 0 C18 + 10 C19 + 14.14213562373095 C20
   + 22.3606797749979 C21 + 28.2842712474619 C22 + 10 C23 + 0 C24
Subject To
 R0: C1 + C11 + C16 + C21 = 1
 R1: C2 + C7 + C17 + C22 = 1
 R2: C3 + C8 + C13 + C23 = 1
 R3: C4 + C9 + C14 + C19 = 1
 R4: C5 + C7 + C8 + C9 = 1
 R5: C10 + C11 + C13 + C14 = 1
 R6: C15 + C16 + C17 + C19 = 1
 R7: C20 + C21 + C22 + C23 = 1
 R8: 7 C1 + C25 <= 10
 R9: 7 C2 + C26 <= 10
 R10: 7 C3 + C27 <= 10
 R11: 7 C4 + C28 <= 10
 R12: 10 C7 + C25 - C26 <= 7
 R13: 10 C8 + C25 - C27 <= 7
 R14: 10 C9 + C25 - C28 <= 7
 R15: 10 C11 - C25 + C26 <= 7
 R16: 10 C13 + C26 - C27 <= 7
 R17: 10 C14 + C26 - C28 <= 7
 R18: 10 C16 - C25 + C27 <= 7
 R19: 10 C17 - C26 + C27 <= 7
 R20: 10 C19 + C27 - C28 <= 7
 R21: 10 C21 - C25 + C28 <= 7
 R22: 10 C22 - C26 + C28 <= 7
 R23: 10 C23 - C27 + C28 <= 7
Bounds
 3 <= C25 <= 10
 3 <= C26 <= 10
 3 <= C27 <= 10
 3 <= C28 <= 10
Binaries
 C0 C1 C2 C3 C4 C5 C6 C7 C8 C9 C10 C11 C12 C13 C14 C15 C16 C17 C18 C19 C20
 C21 C22 C23 C24
End
